c description: Random 3-CNF over 20 variables and 85 clauses
c generator: CNFgen (0.9.2)
c copyright: (C) 2012-2022 Massimo Lauria <massimo.lauria@uniroma1.it>
c url: https://massimolauria.net/cnfgen
c command line: cnfgen --output CNF_4.28/20_bit_85_299.cnf randkcnf 3 20 85
c
p cnf 20 85
11 -13 -18 0
-1 8 -12 0
-2 -5 14 0
10 19 -20 0
-10 -13 17 0
2 7 -13 0
6 11 20 0
7 12 19 0
-6 14 15 0
-8 9 16 0
-8 11 -14 0
-1 -4 19 0
7 14 16 0
-6 -12 20 0
-1 6 7 0
1 -5 -18 0
-9 -13 -20 0
-3 6 20 0
12 15 -20 0
12 -17 -19 0
-4 -5 -12 0
6 8 13 0
-2 10 11 0
-11 18 19 0
-3 4 -5 0
6 -9 -13 0
-2 12 19 0
9 13 14 0
3 -11 -16 0
2 6 20 0
12 16 -20 0
-4 10 -11 0
1 9 19 0
-13 -15 18 0
-2 11 18 0
2 -5 8 0
-7 -10 -15 0
-2 -13 -14 0
3 11 15 0
2 14 -20 0
3 -11 15 0
-6 -8 -11 0
-7 -8 13 0
6 7 -16 0
1 11 12 0
-9 -17 19 0
-3 -6 16 0
-8 -9 11 0
-7 11 17 0
-2 13 14 0
10 -18 19 0
-8 -17 -18 0
3 7 17 0
6 9 -12 0
-2 -15 -18 0
8 13 -20 0
4 -10 19 0
2 8 12 0
-1 -8 16 0
-12 14 -16 0
4 -8 -13 0
-15 16 -18 0
-1 5 -9 0
3 -7 -12 0
-3 10 18 0
-1 10 14 0
-3 16 -20 0
1 -6 -16 0
-1 9 14 0
3 -9 -16 0
8 13 16 0
11 18 19 0
6 12 -13 0
6 -8 15 0
1 12 -15 0
-1 2 -17 0
-6 -10 19 0
4 -9 -12 0
-12 13 19 0
6 -8 9 0
1 -9 -16 0
-15 17 -20 0
-1 14 -15 0
5 8 13 0
-1 -13 15 0
